SystemName        128 water molecules
SystemLabel       h2o  # MUST be this file prefix (eg. h2o for h2o.fdf)
NumberOfAtoms     384
NumberOfSpecies   2

%block ChemicalSpeciesLabel
 1  8  O      # Species index, atomic number, species label
 2  1  H
%endblock ChemicalSpeciesLabel

AtomicCoordinatesFormat  Ang

UseStructFile  .true.

MaxSCFIterations 2
DM.NumberPulay 3
XC.functional GGA
XC.authors PBE

PAO.BasisSize     SZ

MD.TypeOfRun      forces
